
Gurobi 11.0.0 (mac64[arm]) logging started Fri Apr 19 16:16:12 2024

Set parameter LogFile to value "GurobiLogs/boxing_1.txt"
Set parameter TimeLimit to value 3600
Unknown variable 'd[0]' in MIP start 0 - ignored
Unknown variable 'a[Judge_Associated_Press,0]' in MIP start 0 - ignored
Unknown variable 'a[Judge_Boxing_Monthly-Leach,0]' in MIP start 0 - ignored
Unknown variable 'a[Judge_Boxing_Times,0]' in MIP start 0 - ignored
Unknown variable 'a[Judge_E._Williams,0]' in MIP start 0 - ignored
Unknown variable 'a[Judge_ESPN,0]' in MIP start 0 - ignored
Unknown variable 'a[Judge_HBO-Lederman,0]' in MIP start 0 - ignored
Unknown variable 'a[Judge_L._OConnell,0]' in MIP start 0 - ignored
Unknown variable 'a[Judge_S._Christodoulu,0]' in MIP start 0 - ignored
Unknown variable 'a[Judge_Sportsline,0]' in MIP start 0 - ignored
Unknown variable 'a[Judge_Sportsticker,0]' in MIP start 0 - ignored
Unknown variable 'a[Official_Yes,0]' in MIP start 0 - ignored
Unknown variable 'a[Round_1,0]' in MIP start 0 - ignored
Unknown variable 'a[Round_10,0]' in MIP start 0 - ignored
Unknown variable 'a[Round_11,0]' in MIP start 0 - ignored
Unknown variable 'a[Round_12,0]' in MIP start 0 - ignored
Unknown variable 'a[Round_2,0]' in MIP start 0 - ignored
Unknown variable 'a[Round_3,0]' in MIP start 0 - ignored
Unknown variable 'a[Round_4,0]' in MIP start 0 - ignored
Unknown variable 'a[Round_5,0]' in MIP start 0 - ignored
Unknown variable 'a[Round_6,0]' in MIP start 0 - ignored
Unknown variable 'a[Round_7,0]' in MIP start 0 - ignored
Unknown variable 'a[Round_8,0]' in MIP start 0 - ignored
Unknown variable 'a[Round_9,0]' in MIP start 0 - ignored
Unknown variable 'z[40,1]' in MIP start 0 - ignored
Unknown variable 'z[40,2]' in MIP start 0 - ignored
Unknown variable 'z[55,1]' in MIP start 0 - ignored
Unknown variable 'z[55,2]' in MIP start 0 - ignored
Unknown variable 'z[65,1]' in MIP start 0 - ignored
Unknown variable 'z[65,2]' in MIP start 0 - ignored
Unknown variable 'z[88,1]' in MIP start 0 - ignored
Unknown variable 'z[88,2]' in MIP start 0 - ignored
Unknown variable 'z[23,1]' in MIP start 0 - ignored
Unknown variable 'z[23,2]' in MIP start 0 - ignored
Unknown variable 'z[34,1]' in MIP start 0 - ignored
Unknown variable 'z[34,2]' in MIP start 0 - ignored
Unknown variable 'z[78,1]' in MIP start 0 - ignored
Unknown variable 'z[78,2]' in MIP start 0 - ignored
Unknown variable 'z[105,1]' in MIP start 0 - ignored
Unknown variable 'z[105,2]' in MIP start 0 - ignored
Unknown variable 'z[4,1]' in MIP start 0 - ignored
Unknown variable 'z[4,2]' in MIP start 0 - ignored
Unknown variable 'z[82,1]' in MIP start 0 - ignored
Unknown variable 'z[82,2]' in MIP start 0 - ignored
Unknown variable 'z[15,1]' in MIP start 0 - ignored
Unknown variable 'z[15,2]' in MIP start 0 - ignored
Unknown variable 'z[102,1]' in MIP start 0 - ignored
Unknown variable 'z[102,2]' in MIP start 0 - ignored
Unknown variable 'z[41,1]' in MIP start 0 - ignored
Unknown variable 'z[41,2]' in MIP start 0 - ignored
Unknown variable 'z[51,1]' in MIP start 0 - ignored
Unknown variable 'z[51,2]' in MIP start 0 - ignored
Unknown variable 'z[45,1]' in MIP start 0 - ignored
Unknown variable 'z[45,2]' in MIP start 0 - ignored
Unknown variable 'z[110,1]' in MIP start 0 - ignored
Unknown variable 'z[110,2]' in MIP start 0 - ignored
Unknown variable 'z[52,1]' in MIP start 0 - ignored
Unknown variable 'z[52,2]' in MIP start 0 - ignored
Unknown variable 'z[26,1]' in MIP start 0 - ignored
Unknown variable 'z[26,2]' in MIP start 0 - ignored
Unknown variable 'z[43,1]' in MIP start 0 - ignored
Unknown variable 'z[43,2]' in MIP start 0 - ignored
Unknown variable 'z[24,1]' in MIP start 0 - ignored
Unknown variable 'z[24,2]' in MIP start 0 - ignored
Unknown variable 'z[94,1]' in MIP start 0 - ignored
Unknown variable 'z[94,2]' in MIP start 0 - ignored
Unknown variable 'z[74,1]' in MIP start 0 - ignored
Unknown variable 'z[74,2]' in MIP start 0 - ignored
Unknown variable 'z[100,1]' in MIP start 0 - ignored
Unknown variable 'z[100,2]' in MIP start 0 - ignored
Unknown variable 'z[49,1]' in MIP start 0 - ignored
Unknown variable 'z[49,2]' in MIP start 0 - ignored
Unknown variable 'z[21,1]' in MIP start 0 - ignored
Unknown variable 'z[21,2]' in MIP start 0 - ignored
Unknown variable 'z[70,1]' in MIP start 0 - ignored
Unknown variable 'z[70,2]' in MIP start 0 - ignored
Unknown variable 'z[3,1]' in MIP start 0 - ignored
Unknown variable 'z[3,2]' in MIP start 0 - ignored
Unknown variable 'z[118,1]' in MIP start 0 - ignored
Unknown variable 'z[118,2]' in MIP start 0 - ignored
Unknown variable 'z[30,1]' in MIP start 0 - ignored
Unknown variable 'z[30,2]' in MIP start 0 - ignored
Unknown variable 'z[116,1]' in MIP start 0 - ignored
Unknown variable 'z[116,2]' in MIP start 0 - ignored
Unknown variable 'z[47,1]' in MIP start 0 - ignored
Unknown variable 'z[47,2]' in MIP start 0 - ignored
Unknown variable 'z[90,1]' in MIP start 0 - ignored
Unknown variable 'z[90,2]' in MIP start 0 - ignored
Unknown variable 'z[8,1]' in MIP start 0 - ignored
Unknown variable 'z[8,2]' in MIP start 0 - ignored
Unknown variable 'z[60,1]' in MIP start 0 - ignored
Unknown variable 'z[60,2]' in MIP start 0 - ignored
Unknown variable 'z[0,1]' in MIP start 0 - ignored
Unknown variable 'z[0,2]' in MIP start 0 - ignored
Unknown variable 'z[109,1]' in MIP start 0 - ignored
Unknown variable 'z[109,2]' in MIP start 0 - ignored
Unknown variable 'z[57,1]' in MIP start 0 - ignored
Unknown variable 'z[57,2]' in MIP start 0 - ignored
Unknown variable 'z[22,1]' in MIP start 0 - ignored
Unknown variable 'z[22,2]' in MIP start 0 - ignored
Unknown variable 'z[61,1]' in MIP start 0 - ignored
Unknown variable 'z[61,2]' in MIP start 0 - ignored
Unknown variable 'z[63,1]' in MIP start 0 - ignored
Unknown variable 'z[63,2]' in MIP start 0 - ignored
Unknown variable 'z[7,1]' in MIP start 0 - ignored
Unknown variable 'z[7,2]' in MIP start 0 - ignored
Unknown variable 'z[115,1]' in MIP start 0 - ignored
Unknown variable 'z[115,2]' in MIP start 0 - ignored
Unknown variable 'z[13,1]' in MIP start 0 - ignored
Unknown variable 'z[13,2]' in MIP start 0 - ignored
Unknown variable 'z[86,1]' in MIP start 0 - ignored
Unknown variable 'z[86,2]' in MIP start 0 - ignored
Unknown variable 'z[93,1]' in MIP start 0 - ignored
Unknown variable 'z[93,2]' in MIP start 0 - ignored
Unknown variable 'z[87,1]' in MIP start 0 - ignored
Unknown variable 'z[87,2]' in MIP start 0 - ignored
Unknown variable 'z[68,1]' in MIP start 0 - ignored
Unknown variable 'z[68,2]' in MIP start 0 - ignored
Unknown variable 'z[104,1]' in MIP start 0 - ignored
Unknown variable 'z[104,2]' in MIP start 0 - ignored
Unknown variable 'z[14,1]' in MIP start 0 - ignored
Unknown variable 'z[14,2]' in MIP start 0 - ignored
Unknown variable 'z[29,1]' in MIP start 0 - ignored
Unknown variable 'z[29,2]' in MIP start 0 - ignored
Unknown variable 'z[28,1]' in MIP start 0 - ignored
Unknown variable 'z[28,2]' in MIP start 0 - ignored
Unknown variable 'z[11,1]' in MIP start 0 - ignored
Unknown variable 'z[11,2]' in MIP start 0 - ignored
Unknown variable 'z[84,1]' in MIP start 0 - ignored
Unknown variable 'z[84,2]' in MIP start 0 - ignored
Unknown variable 'z[18,1]' in MIP start 0 - ignored
Unknown variable 'z[18,2]' in MIP start 0 - ignored
Unknown variable 'z[101,1]' in MIP start 0 - ignored
Unknown variable 'z[101,2]' in MIP start 0 - ignored
Unknown variable 'z[20,1]' in MIP start 0 - ignored
Unknown variable 'z[20,2]' in MIP start 0 - ignored
Unknown variable 'z[50,1]' in MIP start 0 - ignored
Unknown variable 'z[50,2]' in MIP start 0 - ignored
Unknown variable 'z[25,1]' in MIP start 0 - ignored
Unknown variable 'z[25,2]' in MIP start 0 - ignored
Unknown variable 'z[6,1]' in MIP start 0 - ignored
Unknown variable 'z[6,2]' in MIP start 0 - ignored
Unknown variable 'z[71,1]' in MIP start 0 - ignored
Unknown variable 'z[71,2]' in MIP start 0 - ignored
Unknown variable 'z[76,1]' in MIP start 0 - ignored
Unknown variable 'z[76,2]' in MIP start 0 - ignored
Unknown variable 'z[1,1]' in MIP start 0 - ignored
Unknown variable 'z[1,2]' in MIP start 0 - ignored
Unknown variable 'z[16,1]' in MIP start 0 - ignored
Unknown variable 'z[16,2]' in MIP start 0 - ignored
Unknown variable 'z[64,1]' in MIP start 0 - ignored
Unknown variable 'z[64,2]' in MIP start 0 - ignored
Unknown variable 'z[79,1]' in MIP start 0 - ignored
Unknown variable 'z[79,2]' in MIP start 0 - ignored
Unknown variable 'z[5,1]' in MIP start 0 - ignored
Unknown variable 'z[5,2]' in MIP start 0 - ignored
Unknown variable 'z[75,1]' in MIP start 0 - ignored
Unknown variable 'z[75,2]' in MIP start 0 - ignored
Unknown variable 'z[9,1]' in MIP start 0 - ignored
Unknown variable 'z[9,2]' in MIP start 0 - ignored
Unknown variable 'z[72,1]' in MIP start 0 - ignored
Unknown variable 'z[72,2]' in MIP start 0 - ignored
Unknown variable 'z[12,1]' in MIP start 0 - ignored
Unknown variable 'z[12,2]' in MIP start 0 - ignored
Unknown variable 'z[107,1]' in MIP start 0 - ignored
Unknown variable 'z[107,2]' in MIP start 0 - ignored
Unknown variable 'z[37,1]' in MIP start 0 - ignored
Unknown variable 'z[37,2]' in MIP start 0 - ignored
Unknown variable 'l[1]' in MIP start 0 - ignored
Unknown variable 'l[2]' in MIP start 0 - ignored
Unknown variable 'Beta[Judge_Associated_Press,1]' in MIP start 0 - ignored
Unknown variable 'Beta[Judge_Associated_Press,2]' in MIP start 0 - ignored
Unknown variable 'Beta[Judge_Boxing_Monthly-Leach,1]' in MIP start 0 - ignored
Unknown variable 'Beta[Judge_Boxing_Monthly-Leach,2]' in MIP start 0 - ignored
Unknown variable 'Beta[Judge_Boxing_Times,1]' in MIP start 0 - ignored
Unknown variable 'Beta[Judge_Boxing_Times,2]' in MIP start 0 - ignored
Unknown variable 'Beta[Judge_E._Williams,1]' in MIP start 0 - ignored
Unknown variable 'Beta[Judge_E._Williams,2]' in MIP start 0 - ignored
Unknown variable 'Beta[Judge_ESPN,1]' in MIP start 0 - ignored
Unknown variable 'Beta[Judge_ESPN,2]' in MIP start 0 - ignored
Unknown variable 'Beta[Judge_HBO-Lederman,1]' in MIP start 0 - ignored
Unknown variable 'Beta[Judge_HBO-Lederman,2]' in MIP start 0 - ignored
Unknown variable 'Beta[Judge_L._OConnell,1]' in MIP start 0 - ignored
Unknown variable 'Beta[Judge_L._OConnell,2]' in MIP start 0 - ignored
Unknown variable 'Beta[Judge_S._Christodoulu,1]' in MIP start 0 - ignored
Unknown variable 'Beta[Judge_S._Christodoulu,2]' in MIP start 0 - ignored
Unknown variable 'Beta[Judge_Sportsline,1]' in MIP start 0 - ignored
Unknown variable 'Beta[Judge_Sportsline,2]' in MIP start 0 - ignored
Unknown variable 'Beta[Judge_Sportsticker,1]' in MIP start 0 - ignored
Unknown variable 'Beta[Judge_Sportsticker,2]' in MIP start 0 - ignored
Unknown variable 'Beta[Official_Yes,1]' in MIP start 0 - ignored
Unknown variable 'Beta[Official_Yes,2]' in MIP start 0 - ignored
Unknown variable 'Beta[Round_1,1]' in MIP start 0 - ignored
Unknown variable 'Beta[Round_1,2]' in MIP start 0 - ignored
Unknown variable 'Beta[Round_10,1]' in MIP start 0 - ignored
Unknown variable 'Beta[Round_10,2]' in MIP start 0 - ignored
Unknown variable 'Beta[Round_11,1]' in MIP start 0 - ignored
Unknown variable 'Beta[Round_11,2]' in MIP start 0 - ignored
Unknown variable 'Beta[Round_12,1]' in MIP start 0 - ignored
Unknown variable 'Beta[Round_12,2]' in MIP start 0 - ignored
Unknown variable 'Beta[Round_2,1]' in MIP start 0 - ignored
Unknown variable 'Beta[Round_2,2]' in MIP start 0 - ignored
Unknown variable 'Beta[Round_3,1]' in MIP start 0 - ignored
Unknown variable 'Beta[Round_3,2]' in MIP start 0 - ignored
Unknown variable 'Beta[Round_4,1]' in MIP start 0 - ignored
Unknown variable 'Beta[Round_4,2]' in MIP start 0 - ignored
Unknown variable 'Beta[Round_5,1]' in MIP start 0 - ignored
Unknown variable 'Beta[Round_5,2]' in MIP start 0 - ignored
Unknown variable 'Beta[Round_6,1]' in MIP start 0 - ignored
Unknown variable 'Beta[Round_6,2]' in MIP start 0 - ignored
Unknown variable 'Beta[Round_7,1]' in MIP start 0 - ignored
Unknown variable 'Beta[Round_7,2]' in MIP start 0 - ignored
Unknown variable 'Beta[Round_8,1]' in MIP start 0 - ignored
Unknown variable 'Beta[Round_8,2]' in MIP start 0 - ignored
Unknown variable 'Beta[Round_9,1]' in MIP start 0 - ignored
Unknown variable 'Beta[Round_9,2]' in MIP start 0 - ignored
Unknown variable 'Beta_abs[Judge_Associated_Press,1]' in MIP start 0 - ignored
Unknown variable 'Beta_abs[Judge_Associated_Press,2]' in MIP start 0 - ignored
Unknown variable 'Beta_abs[Judge_Boxing_Monthly-Leach,1]' in MIP start 0 - ignored
Unknown variable 'Beta_abs[Judge_Boxing_Monthly-Leach,2]' in MIP start 0 - ignored
Unknown variable 'Beta_abs[Judge_Boxing_Times,1]' in MIP start 0 - ignored
Unknown variable 'Beta_abs[Judge_Boxing_Times,2]' in MIP start 0 - ignored
Unknown variable 'Beta_abs[Judge_E._Williams,1]' in MIP start 0 - ignored
Unknown variable 'Beta_abs[Judge_E._Williams,2]' in MIP start 0 - ignored
Unknown variable 'Beta_abs[Judge_ESPN,1]' in MIP start 0 - ignored
Unknown variable 'Beta_abs[Judge_ESPN,2]' in MIP start 0 - ignored
Unknown variable 'Beta_abs[Judge_HBO-Lederman,1]' in MIP start 0 - ignored
Unknown variable 'Beta_abs[Judge_HBO-Lederman,2]' in MIP start 0 - ignored
Unknown variable 'Beta_abs[Judge_L._OConnell,1]' in MIP start 0 - ignored
Unknown variable 'Beta_abs[Judge_L._OConnell,2]' in MIP start 0 - ignored
Unknown variable 'Beta_abs[Judge_S._Christodoulu,1]' in MIP start 0 - ignored
Unknown variable 'Beta_abs[Judge_S._Christodoulu,2]' in MIP start 0 - ignored
Unknown variable 'Beta_abs[Judge_Sportsline,1]' in MIP start 0 - ignored
Unknown variable 'Beta_abs[Judge_Sportsline,2]' in MIP start 0 - ignored
Unknown variable 'Beta_abs[Judge_Sportsticker,1]' in MIP start 0 - ignored
Unknown variable 'Beta_abs[Judge_Sportsticker,2]' in MIP start 0 - ignored
Unknown variable 'Beta_abs[Official_Yes,1]' in MIP start 0 - ignored
Unknown variable 'Beta_abs[Official_Yes,2]' in MIP start 0 - ignored
Unknown variable 'Beta_abs[Round_1,1]' in MIP start 0 - ignored
Unknown variable 'Beta_abs[Round_1,2]' in MIP start 0 - ignored
Unknown variable 'Beta_abs[Round_10,1]' in MIP start 0 - ignored
Unknown variable 'Beta_abs[Round_10,2]' in MIP start 0 - ignored
Unknown variable 'Beta_abs[Round_11,1]' in MIP start 0 - ignored
Unknown variable 'Beta_abs[Round_11,2]' in MIP start 0 - ignored
Unknown variable 'Beta_abs[Round_12,1]' in MIP start 0 - ignored
Unknown variable 'Beta_abs[Round_12,2]' in MIP start 0 - ignored
Unknown variable 'Beta_abs[Round_2,1]' in MIP start 0 - ignored
Unknown variable 'Beta_abs[Round_2,2]' in MIP start 0 - ignored
Unknown variable 'Beta_abs[Round_3,1]' in MIP start 0 - ignored
Unknown variable 'Beta_abs[Round_3,2]' in MIP start 0 - ignored
Unknown variable 'Beta_abs[Round_4,1]' in MIP start 0 - ignored
Unknown variable 'Beta_abs[Round_4,2]' in MIP start 0 - ignored
Unknown variable 'Beta_abs[Round_5,1]' in MIP start 0 - ignored
Unknown variable 'Beta_abs[Round_5,2]' in MIP start 0 - ignored
Unknown variable 'Beta_abs[Round_6,1]' in MIP start 0 - ignored
Unknown variable 'Beta_abs[Round_6,2]' in MIP start 0 - ignored
Unknown variable 'Beta_abs[Round_7,1]' in MIP start 0 - ignored
Unknown variable 'Beta_abs[Round_7,2]' in MIP start 0 - ignored
Unknown variable 'Beta_abs[Round_8,1]' in MIP start 0 - ignored
Unknown variable 'Beta_abs[Round_8,2]' in MIP start 0 - ignored
Unknown variable 'Beta_abs[Round_9,1]' in MIP start 0 - ignored
Unknown variable 'Beta_abs[Round_9,2]' in MIP start 0 - ignored
Read MIP start from file WarmStarts/boxing_1.mst
Gurobi Optimizer version 11.0.0 build v11.0.0rc2 (mac64[arm] - Darwin 23.4.0 23E224)

CPU model: Apple M3 Pro
Thread count: 11 physical cores, 11 logical processors, using up to 11 threads

Optimize a model with 154 rows, 79 columns and 455 nonzeros
Model fingerprint: 0xab98f74b
Variable types: 0 continuous, 79 integer (75 binary)
Coefficient statistics:
  Matrix range     [1e+00, 7e+01]
  Objective range  [1e+00, 1e+00]
  Bounds range     [1e+00, 1e+00]
  RHS range        [1e+00, 7e+01]

No start values specified in MIP start

Found heuristic solution: objective 25.0000000
Presolve removed 154 rows and 79 columns
Presolve time: 0.00s
Presolve: All rows and columns removed

Explored 0 nodes (0 simplex iterations) in 0.00 seconds (0.00 work units)
Thread count was 1 (of 11 available processors)

Solution count 1: 25 

Optimal solution found (tolerance 1.00e-04)
Best objective 2.500000000000e+01, best bound 2.500000000000e+01, gap 0.0000%

Gurobi 11.0.0 (mac64[arm]) logging started Fri Apr 19 16:16:12 2024

Set parameter LogFile to value "GurobiLogs/boxing_1.txt"
Set parameter TimeLimit to value 3600
Read MIP start from file WarmStarts/boxing_1.mst
Gurobi Optimizer version 11.0.0 build v11.0.0rc2 (mac64[arm] - Darwin 23.4.0 23E224)

CPU model: Apple M3 Pro
Thread count: 11 physical cores, 11 logical processors, using up to 11 threads

Optimize a model with 154 rows, 79 columns and 455 nonzeros
Model fingerprint: 0xb552a43d
Variable types: 0 continuous, 79 integer (75 binary)
Coefficient statistics:
  Matrix range     [1e+00, 7e+01]
  Objective range  [1e+00, 1e+00]
  Bounds range     [1e+00, 1e+00]
  RHS range        [1e+00, 7e+01]

Loaded user MIP start with objective 25

Presolve removed 154 rows and 79 columns
Presolve time: 0.00s
Presolve: All rows and columns removed

Explored 0 nodes (0 simplex iterations) in 0.00 seconds (0.00 work units)
Thread count was 1 (of 11 available processors)

Solution count 1: 25 

Optimal solution found (tolerance 1.00e-04)
Best objective 2.500000000000e+01, best bound 2.500000000000e+01, gap 0.0000%

Gurobi 11.0.0 (mac64[arm]) logging started Fri Apr 19 16:16:12 2024

Set parameter LogFile to value "GurobiLogs/boxing_1.txt"
Set parameter TimeLimit to value 3600
Read MIP start from file WarmStarts/boxing_1.mst
Gurobi Optimizer version 11.0.0 build v11.0.0rc2 (mac64[arm] - Darwin 23.4.0 23E224)

CPU model: Apple M3 Pro
Thread count: 11 physical cores, 11 logical processors, using up to 11 threads

Optimize a model with 154 rows, 79 columns and 455 nonzeros
Model fingerprint: 0xb552a43d
Variable types: 0 continuous, 79 integer (75 binary)
Coefficient statistics:
  Matrix range     [1e+00, 7e+01]
  Objective range  [1e+00, 1e+00]
  Bounds range     [1e+00, 1e+00]
  RHS range        [1e+00, 7e+01]

Loaded user MIP start with objective 25

Presolve removed 154 rows and 79 columns
Presolve time: 0.00s
Presolve: All rows and columns removed

Explored 0 nodes (0 simplex iterations) in 0.00 seconds (0.00 work units)
Thread count was 1 (of 11 available processors)

Solution count 1: 25 

Optimal solution found (tolerance 1.00e-04)
Best objective 2.500000000000e+01, best bound 2.500000000000e+01, gap 0.0000%

Gurobi 11.0.0 (mac64[arm]) logging started Fri Apr 19 16:16:12 2024

Set parameter LogFile to value "GurobiLogs/boxing_1.txt"
Set parameter TimeLimit to value 3600
Read MIP start from file WarmStarts/boxing_1.mst
Gurobi Optimizer version 11.0.0 build v11.0.0rc2 (mac64[arm] - Darwin 23.4.0 23E224)

CPU model: Apple M3 Pro
Thread count: 11 physical cores, 11 logical processors, using up to 11 threads

Optimize a model with 154 rows, 79 columns and 455 nonzeros
Model fingerprint: 0xb552a43d
Variable types: 0 continuous, 79 integer (75 binary)
Coefficient statistics:
  Matrix range     [1e+00, 7e+01]
  Objective range  [1e+00, 1e+00]
  Bounds range     [1e+00, 1e+00]
  RHS range        [1e+00, 7e+01]

Loaded user MIP start with objective 25

Presolve removed 154 rows and 79 columns
Presolve time: 0.00s
Presolve: All rows and columns removed

Explored 0 nodes (0 simplex iterations) in 0.00 seconds (0.00 work units)
Thread count was 1 (of 11 available processors)

Solution count 1: 25 

Optimal solution found (tolerance 1.00e-04)
Best objective 2.500000000000e+01, best bound 2.500000000000e+01, gap 0.0000%

Gurobi 11.0.0 (mac64[arm]) logging started Fri Apr 19 16:16:12 2024

Set parameter LogFile to value "GurobiLogs/boxing_1.txt"
Set parameter TimeLimit to value 3600
Unknown variable 'z[40,0]' in MIP start 0 - ignored
Unknown variable 'z[55,0]' in MIP start 0 - ignored
Unknown variable 'z[65,0]' in MIP start 0 - ignored
Unknown variable 'z[88,0]' in MIP start 0 - ignored
Unknown variable 'z[23,0]' in MIP start 0 - ignored
Unknown variable 'z[34,0]' in MIP start 0 - ignored
Unknown variable 'z[78,0]' in MIP start 0 - ignored
Unknown variable 'z[105,0]' in MIP start 0 - ignored
Unknown variable 'z[4,0]' in MIP start 0 - ignored
Unknown variable 'z[82,0]' in MIP start 0 - ignored
Unknown variable 'z[15,0]' in MIP start 0 - ignored
Unknown variable 'z[102,0]' in MIP start 0 - ignored
Unknown variable 'z[41,0]' in MIP start 0 - ignored
Unknown variable 'z[51,0]' in MIP start 0 - ignored
Unknown variable 'z[45,0]' in MIP start 0 - ignored
Unknown variable 'z[110,0]' in MIP start 0 - ignored
Unknown variable 'z[52,0]' in MIP start 0 - ignored
Unknown variable 'z[26,0]' in MIP start 0 - ignored
Unknown variable 'z[43,0]' in MIP start 0 - ignored
Unknown variable 'z[24,0]' in MIP start 0 - ignored
Unknown variable 'z[94,0]' in MIP start 0 - ignored
Unknown variable 'z[74,0]' in MIP start 0 - ignored
Unknown variable 'z[100,0]' in MIP start 0 - ignored
Unknown variable 'z[49,0]' in MIP start 0 - ignored
Unknown variable 'z[21,0]' in MIP start 0 - ignored
Unknown variable 'z[70,0]' in MIP start 0 - ignored
Unknown variable 'z[3,0]' in MIP start 0 - ignored
Unknown variable 'z[118,0]' in MIP start 0 - ignored
Unknown variable 'z[30,0]' in MIP start 0 - ignored
Unknown variable 'z[116,0]' in MIP start 0 - ignored
Unknown variable 'z[47,0]' in MIP start 0 - ignored
Unknown variable 'z[90,0]' in MIP start 0 - ignored
Unknown variable 'z[8,0]' in MIP start 0 - ignored
Unknown variable 'z[60,0]' in MIP start 0 - ignored
Unknown variable 'z[0,0]' in MIP start 0 - ignored
Unknown variable 'z[109,0]' in MIP start 0 - ignored
Unknown variable 'z[57,0]' in MIP start 0 - ignored
Unknown variable 'z[22,0]' in MIP start 0 - ignored
Unknown variable 'z[61,0]' in MIP start 0 - ignored
Unknown variable 'z[63,0]' in MIP start 0 - ignored
Unknown variable 'z[7,0]' in MIP start 0 - ignored
Unknown variable 'z[115,0]' in MIP start 0 - ignored
Unknown variable 'z[13,0]' in MIP start 0 - ignored
Unknown variable 'z[86,0]' in MIP start 0 - ignored
Unknown variable 'z[93,0]' in MIP start 0 - ignored
Unknown variable 'z[87,0]' in MIP start 0 - ignored
Unknown variable 'z[68,0]' in MIP start 0 - ignored
Unknown variable 'z[104,0]' in MIP start 0 - ignored
Unknown variable 'z[14,0]' in MIP start 0 - ignored
Unknown variable 'z[29,0]' in MIP start 0 - ignored
Unknown variable 'z[28,0]' in MIP start 0 - ignored
Unknown variable 'z[11,0]' in MIP start 0 - ignored
Unknown variable 'z[84,0]' in MIP start 0 - ignored
Unknown variable 'z[18,0]' in MIP start 0 - ignored
Unknown variable 'z[101,0]' in MIP start 0 - ignored
Unknown variable 'z[20,0]' in MIP start 0 - ignored
Unknown variable 'z[50,0]' in MIP start 0 - ignored
Unknown variable 'z[25,0]' in MIP start 0 - ignored
Unknown variable 'z[6,0]' in MIP start 0 - ignored
Unknown variable 'z[71,0]' in MIP start 0 - ignored
Unknown variable 'z[76,0]' in MIP start 0 - ignored
Unknown variable 'z[1,0]' in MIP start 0 - ignored
Unknown variable 'z[16,0]' in MIP start 0 - ignored
Unknown variable 'z[64,0]' in MIP start 0 - ignored
Unknown variable 'z[79,0]' in MIP start 0 - ignored
Unknown variable 'z[5,0]' in MIP start 0 - ignored
Unknown variable 'z[75,0]' in MIP start 0 - ignored
Unknown variable 'z[9,0]' in MIP start 0 - ignored
Unknown variable 'z[72,0]' in MIP start 0 - ignored
Unknown variable 'z[12,0]' in MIP start 0 - ignored
Unknown variable 'z[107,0]' in MIP start 0 - ignored
Unknown variable 'z[37,0]' in MIP start 0 - ignored
Unknown variable 'l[0]' in MIP start 0 - ignored
Unknown variable 'c[1.0,0]' in MIP start 0 - ignored
Unknown variable 'c[-1.0,0]' in MIP start 0 - ignored
Unknown variable 'n_k[1.0,0]' in MIP start 0 - ignored
Unknown variable 'n_k[-1.0,0]' in MIP start 0 - ignored
Unknown variable 'N[0]' in MIP start 0 - ignored
Unknown variable 'L[0]' in MIP start 0 - ignored
Read MIP start from file WarmStarts/boxing_1.mst
Gurobi Optimizer version 11.0.0 build v11.0.0rc2 (mac64[arm] - Darwin 23.4.0 23E224)

CPU model: Apple M3 Pro
Thread count: 11 physical cores, 11 logical processors, using up to 11 threads

Optimize a model with 384 rows, 183 columns and 4543 nonzeros
Model fingerprint: 0xa9da8523
Variable types: 1 continuous, 182 integer (174 binary)
Coefficient statistics:
  Matrix range     [3e-01, 7e+01]
  Objective range  [1e+00, 1e+00]
  Bounds range     [1e+00, 1e+00]
  RHS range        [1e+00, 7e+01]

No start values specified in MIP start

Presolve removed 384 rows and 183 columns
Presolve time: 0.00s
Presolve: All rows and columns removed

Explored 0 nodes (0 simplex iterations) in 0.00 seconds (0.01 work units)
Thread count was 1 (of 11 available processors)

Solution count 1: 25 

Optimal solution found (tolerance 1.00e-04)
Best objective 2.500000000000e+01, best bound 2.500000000000e+01, gap 0.0000%

Gurobi 11.0.0 (mac64[arm]) logging started Fri Apr 19 16:16:12 2024

Set parameter LogFile to value "GurobiLogs/boxing_1.txt"
Set parameter TimeLimit to value 3600
Read MIP start from file WarmStarts/boxing_1.mst
Gurobi Optimizer version 11.0.0 build v11.0.0rc2 (mac64[arm] - Darwin 23.4.0 23E224)

CPU model: Apple M3 Pro
Thread count: 11 physical cores, 11 logical processors, using up to 11 threads

Optimize a model with 384 rows, 183 columns and 4543 nonzeros
Model fingerprint: 0x1a54ec00
Variable types: 1 continuous, 182 integer (174 binary)
Coefficient statistics:
  Matrix range     [3e-01, 7e+01]
  Objective range  [1e+00, 1e+00]
  Bounds range     [1e+00, 1e+00]
  RHS range        [1e+00, 7e+01]

User MIP start produced solution with objective 25 (0.00s)
Loaded user MIP start with objective 25

Presolve removed 384 rows and 183 columns
Presolve time: 0.00s
Presolve: All rows and columns removed

Explored 0 nodes (0 simplex iterations) in 0.01 seconds (0.01 work units)
Thread count was 1 (of 11 available processors)

Solution count 1: 25 

Optimal solution found (tolerance 1.00e-04)
Best objective 2.500000000000e+01, best bound 2.500000000000e+01, gap 0.0000%

Gurobi 11.0.0 (mac64[arm]) logging started Fri Apr 19 16:16:12 2024

Set parameter LogFile to value "GurobiLogs/boxing_1.txt"
Set parameter TimeLimit to value 3600
Read MIP start from file WarmStarts/boxing_1.mst
Gurobi Optimizer version 11.0.0 build v11.0.0rc2 (mac64[arm] - Darwin 23.4.0 23E224)

CPU model: Apple M3 Pro
Thread count: 11 physical cores, 11 logical processors, using up to 11 threads

Optimize a model with 384 rows, 183 columns and 4543 nonzeros
Model fingerprint: 0x1a54ec00
Variable types: 1 continuous, 182 integer (174 binary)
Coefficient statistics:
  Matrix range     [3e-01, 7e+01]
  Objective range  [1e+00, 1e+00]
  Bounds range     [1e+00, 1e+00]
  RHS range        [1e+00, 7e+01]

User MIP start produced solution with objective 25 (0.01s)
Loaded user MIP start with objective 25

Presolve removed 384 rows and 183 columns
Presolve time: 0.00s
Presolve: All rows and columns removed

Explored 0 nodes (0 simplex iterations) in 0.01 seconds (0.01 work units)
Thread count was 1 (of 11 available processors)

Solution count 1: 25 

Optimal solution found (tolerance 1.00e-04)
Best objective 2.500000000000e+01, best bound 2.500000000000e+01, gap 0.0000%

Gurobi 11.0.0 (mac64[arm]) logging started Fri Apr 19 16:16:12 2024

Set parameter LogFile to value "GurobiLogs/boxing_1.txt"
Set parameter TimeLimit to value 3600
Read MIP start from file WarmStarts/boxing_1.mst
Gurobi Optimizer version 11.0.0 build v11.0.0rc2 (mac64[arm] - Darwin 23.4.0 23E224)

CPU model: Apple M3 Pro
Thread count: 11 physical cores, 11 logical processors, using up to 11 threads

Optimize a model with 384 rows, 183 columns and 4543 nonzeros
Model fingerprint: 0x1a54ec00
Variable types: 1 continuous, 182 integer (174 binary)
Coefficient statistics:
  Matrix range     [3e-01, 7e+01]
  Objective range  [1e+00, 1e+00]
  Bounds range     [1e+00, 1e+00]
  RHS range        [1e+00, 7e+01]

User MIP start produced solution with objective 25 (0.00s)
Loaded user MIP start with objective 25

Presolve removed 384 rows and 183 columns
Presolve time: 0.00s
Presolve: All rows and columns removed

Explored 0 nodes (0 simplex iterations) in 0.01 seconds (0.01 work units)
Thread count was 1 (of 11 available processors)

Solution count 1: 25 

Optimal solution found (tolerance 1.00e-04)
Best objective 2.500000000000e+01, best bound 2.500000000000e+01, gap 0.0000%
